!HF 

* xyz 0 1
C       5.47300      0.28900     -1.32700
N       4.04100      0.14900     -1.21200
C       3.37200      1.43400     -1.26400
C       1.88300      1.27800     -1.00100
C       1.27900      0.33900     -2.05000
C       2.02500     -0.99900     -2.08000
C       3.52300     -0.74800     -2.22200
C      -0.22300      0.14100     -2.05300
C      -1.01800     -0.05600     -0.92500
O      -0.37600      0.01400      0.25800
C      -0.98900     -0.20200      1.42600
C      -2.30000     -0.47800      1.49500
C      -3.12700     -0.52100      0.30300
O      -4.33000     -0.74200      0.37800
C      -2.40400     -0.29800     -0.95100
C      -3.02300     -0.34500     -2.21800
O      -4.33600     -0.57900     -2.29200
C      -2.27000     -0.15500     -3.35900
C      -0.89800      0.07700     -3.27600
O      -0.17800      0.24100     -4.39400
C      -0.03800     -0.16300      2.55000
C      -0.29800      0.46300      3.77000
Cl     -1.75300      1.36400      4.03900
C       0.62600      0.43000      4.80400
C       1.83300     -0.22700      4.63100
C       2.12300     -0.83500      3.41700
C       1.19900     -0.79500      2.38900
O       1.69600     -1.73800     -0.92700
H       5.85100      0.93900     -0.53600
H       5.95700     -0.68300     -1.21800
H       5.79400      0.71600     -2.29100
H       3.81000      2.08600     -0.50300
H       3.53300      1.93500     -2.23700
H       1.75200      0.91400      0.01400
H       1.40200      2.25700     -1.06300
H       1.52300      0.80400     -3.00900
H       1.70900     -1.54300     -2.98200
H       3.70300     -0.36300     -3.24300
H       4.06000     -1.70000     -2.16100
H      -2.76400     -0.68600      2.44800
H      -4.61200     -0.59600     -3.21600
H      -2.75000     -0.19700     -4.33200
H      -0.74200      0.19300     -5.17500
H       0.40500      0.92700      5.73900
H       2.54700     -0.25300      5.44300
H       3.06800     -1.34100      3.27100
H       1.43400     -1.26200      1.44100
H       2.18700     -2.56500     -0.95100
*